WARNING: for repeatability, setting FPU to use double precision
============================[ Problem Statistics ]=============================
|                                                                             |
|  Number of variables:         33791                                         |
|  Number of clauses:          796003                                         |
|  Parse time:                   0.19 s                                       |
|  Eliminated clauses:           0.07 Mb                                      |
|  Simplification time:          0.33 s                                       |
|                                                                             |
============================[ Search Statistics ]==============================
| Conflicts |          ORIGINAL         |          LEARNT          | Progress |
|           |    Vars  Clauses Literals |    Limit  Clauses Lit/Cl |          |
===============================================================================
|       100 |    4782    50872   167849 |    18653      100     49 | 69.101 % |
|       250 |    4782    50872   167849 |    20518      250     50 | 69.101 % |
|       475 |    4782    50872   167849 |    22570      475     42 | 69.101 % |
|       812 |    4782    50872   167849 |    24827      812     46 | 69.101 % |
|      1318 |    4782    50872   167849 |    27309     1318     45 | 69.101 % |
|      2077 |    4782    50872   167849 |    30040     2077     47 | 69.101 % |
|      3216 |    4782    50872   167849 |    33045     3216     52 | 69.101 % |
|      4924 |    4782    50872   167849 |    36349     4924     63 | 69.101 % |
|      7486 |    4782    50872   167849 |    39984     7486     81 | 69.101 % |
===============================================================================
restarts              : 38
conflicts             : 9033           (13508 /sec)
decisions             : 75220          (0.00 % random) (112482 /sec)
propagations          : 755166         (1129254 /sec)
conflict literals     : 741160         (5.82 % deleted)
Memory used           : 77.00 MB
CPU time              : 0.66873 s

SATISFIABLE
